units lj
atom_style atomic

lattice fcc 0.8442
region particle_boundary sphere 10 10 10 5
region simulation_box block 0 20 0 20 0 20
create_box 1 simulation_box
create_atoms 1 region particle_boundary
mass 1 1.0

velocity all create 3.0 87287 loop geom

pair_style lj/cut 2.5
pair_coeff 1 1 1.0 1.0 2.5

neighbor 0.3 bin
neigh_modify every 1 delay 0 check no

fix 1 all nve

dump 1 all atom 2 melt.dump
thermo 50
run 1000
